(set-logic QF_SLIA)
(declare-const result String)
(declare-const attack String)
(declare-const prefix RegLan)
(declare-const infix RegLan)
(declare-const postfix RegLan)
(declare-const postfixs String)

(assert (str.in_re attack (re.++ prefix ((_ re.loop 5000 5000) infix) postfix)))
(assert (= prefix 
    (str.to_re "")
))
(assert (= infix 
        (re.inter (re.+ re.allchar )  (re.++ (re.+ re.allchar ) (re.++  (str.to_re "\u{5c}\u{40}") (re.+ re.allchar ))) (re.+ re.allchar ) )
))
(assert (= postfix 
        (re.inter  (re.inter  (re.++  (str.to_re "\u{00}") (re.++  (str.to_re "\u{40}") (re.++  (str.to_re "\u{00}") (re.*  (re.union (re.union (str.to_re "\u{09}") (str.to_re "\u{0a}") (str.to_re "\u{0d}") (str.to_re " ")) (re.inter re.allchar (re.comp (re.union (str.to_re "\u{09}") (str.to_re "\u{0a}") (str.to_re "\u{0d}") (str.to_re " "))))) )))) (re.comp (re.+ re.allchar )))  (re.inter  (re.++  (str.to_re "\u{00}") (re.++  (str.to_re "\u{40}") (re.++  (str.to_re "\u{00}") (re.*  (re.union (re.union (str.to_re "\u{09}") (str.to_re "\u{0a}") (str.to_re "\u{0d}") (str.to_re " ")) (re.inter re.allchar (re.comp (re.union (str.to_re "\u{09}") (str.to_re "\u{0a}") (str.to_re "\u{0d}") (str.to_re " "))))) )))) (re.comp  (re.++ (re.+ re.allchar )  (re.++  (str.to_re "\u{5c}\u{2e}") (re.+ re.allchar ))))) )
))
(assert (str.in_re postfixs postfix))
(assert (>= (str.len postfixs) 1))
(assert (= result (str.++ attack postfixs)))
(check-sat)
(get-model)